(set-info :origin "SVCOMP13 benchmarks generated by Arie Gurfinkel")
(set-info :status unsat)
(set-logic HORN)
(declare-fun cp-rel-entry () Bool)
(declare-fun cp-rel-bb.i102.i
             (Bool Real Real Real Real Real Real Real Real Real)
             Bool)
(declare-fun cp-rel-bb.i102.i.outer
             (Real Real Real Real Real Real Real Real Real Real)
             Bool)
(declare-fun cp-rel-UnifiedReturnBlock () Bool)
(declare-fun cp-rel-__UFO__0
             (Real
              Real
              Real
              Real
              Real
              Real
              Real
              Real
              Real
              Bool
              Real
              Real
              Real
              Real
              Real
              Real
              Real
              Real
              Real)
             Bool)
(assert |cp-rel-entry|)
(assert (forall ((?A Real) (?B Real) (?C Real) (?D Real) (?E Real) (?F Real) (?G Real) (?H Real) (?I Real) (?J Real) (?K Bool) )(let (($x429648 (|cp-rel-bb.i102.i.outer| ?A ?B ?C ?D ?E ?F ?G ?H ?I ?J)))
(let (($x250916 (= ?K true)))
(let (($x566328 (and |cp-rel-entry| (<= ?J 0.0) (>= ?I 0.0) (<= ?I 0.0) (>= ?H 0.0) (<= ?H 0.0) (>= ?G 0.0) (<= ?G 0.0) (>= ?F 0.0) (<= ?F 0.0) (>= ?E 0.0) (<= ?E 0.0) (>= ?D 0.0) (<= ?D 0.0) (>= ?C 0.0) (<= ?C 0.0) (>= ?B 0.0) (<= ?B 0.0) (>= ?A 0.0) (<= ?A 0.0) $x250916 (>= ?J 0.0))))
(=> $x566328 $x429648)))))
)
(assert (forall ((?A Real) (?B Real) (?C Real) (?D Real) (?E Real) (?F Real) (?G Real) (?H Real) (?I Real) (?J Real) (?K Bool) (?L Real) (?M Real) (?N Real) (?O Real) (?P Real) (?Q Real) (?R Real) (?S Real) (?T Real) (?U Bool) (?V Bool) (?W Bool) (?X Bool) (?Y Bool) (?Z Bool) (?A1 Bool) (?B1 Bool) (?C1 Bool) (?D1 Bool) (?E1 Bool) (?F1 Bool) (?G1 Bool) (?H1 Bool) (?I1 Bool) (?J1 Bool) (?K1 Bool) (?L1 Bool) (?M1 Bool) (?N1 Bool) (?O1 Bool) (?P1 Real) (?Q1 Real) (?R1 Real) (?S1 Real) (?T1 Real) (?U1 Real) (?V1 Real) (?W1 Bool) (?X1 Bool) (?Y1 Bool) (?Z1 Bool) (?A2 Bool) (?B2 Bool) (?C2 Bool) (?D2 Bool) (?E2 Bool) (?F2 Bool) (?G2 Bool) (?H2 Bool) (?I2 Bool) (?J2 Real) (?K2 Real) (?L2 Real) (?M2 Real) (?N2 Real) (?O2 Real) (?P2 Bool) (?Q2 Bool) (?R2 Bool) (?S2 Bool) (?T2 Bool) (?U2 Bool) (?V2 Bool) (?W2 Bool) (?X2 Bool) (?Y2 Bool) (?Z2 Bool) (?A3 Bool) (?B3 Bool) (?C3 Bool) (?D3 Real) (?E3 Real) (?F3 Real) (?G3 Real) (?H3 Real) (?I3 Real) (?J3 Bool) (?K3 Bool) (?L3 Bool) (?M3 Bool) (?N3 Bool) (?O3 Bool) (?P3 Bool) (?Q3 Bool) (?R3 Bool) (?S3 Bool) (?T3 Bool) (?U3 Real) (?V3 Real) (?W3 Bool) (?X3 Real) (?Y3 Real) (?Z3 Bool) (?A4 Bool) (?B4 Bool) (?C4 Bool) (?D4 Bool) (?E4 Bool) (?F4 Bool) (?G4 Bool) (?H4 Bool) (?I4 Bool) (?J4 Real) (?K4 Bool) (?L4 Bool) (?M4 Real) (?N4 Bool) (?O4 Real) (?P4 Bool) (?Q4 Real) (?R4 Real) (?S4 Bool) )(let (($x857886 (|cp-rel-bb.i102.i.outer| ?A ?B ?C ?D ?E ?F ?G ?H ?I ?J)))
(let (($x295316 (not ?G1)))
(let (($x40261 (or $x295316 ?H1)))
(let (($x349772 (or (not ?J1) (and ?G1 ?K1 (not ?L1)) (and ?A1 ?M1 (not ?I1)))))
(let (($x119896 (and ?Y ?X1 ?F1 (<= ?P1 ?L) (>= ?P1 ?L) (<= ?Q1 ?O) (>= ?Q1 ?O) (<= ?S1 ?P) (>= ?S1 ?P) (<= ?T1 ?Q) (>= ?T1 ?Q) (<= ?U1 ?R) (>= ?U1 ?R))))
(let (($x164718 (and ?U ?W1 ?C1 (<= ?P1 ?L) (>= ?P1 ?L) (<= ?Q1 ?O) (>= ?Q1 ?O) (<= ?S1 ?P) (>= ?S1 ?P) (<= ?T1 ?Q) (>= ?T1 ?Q) (<= ?U1 ?R) (>= ?U1 ?R))))
(let (($x119374 (and ?J1 ?O1 (<= ?P1 1.0) (>= ?P1 1.0) (<= ?Q1 ?R1) (>= ?Q1 ?R1) (<= ?S1 ?R1) (>= ?S1 ?R1) (<= ?T1 2.0) (>= ?T1 2.0) (<= ?U1 ?V1) (>= ?U1 ?V1))))
(let (($x850553 (or (not ?N1) (and ?O1 (not ?W1) (not ?X1)) (and ?W1 (not ?O1) (not ?X1)) (and ?X1 (not ?O1) (not ?W1)))))
(let (($x646362 (not ?E2)))
(let (($x580474 (or $x646362 ?F2)))
(let (($x385441 (>= ?N2 ?S)))
(let (($x855802 (<= ?N2 ?S)))
(let (($x302192 (>= ?K2 ?Q1)))
(let (($x236627 (<= ?K2 ?Q1)))
(let (($x353724 (and ?N1 ?R2 (not ?A2) (<= ?J2 ?M) (>= ?J2 ?M) $x236627 $x302192 (<= ?M2 ?U1) (>= ?M2 ?U1) $x855802 $x385441)))
(let (($x284785 (and ?Y1 ?Q2 ?D2 (<= ?J2 ?M) (>= ?J2 ?M) $x236627 $x302192 (<= ?M2 ?U1) (>= ?M2 ?U1) $x855802 $x385441)))
(let (($x855730 (and ?B2 ?P2 (not ?G2) (<= ?J2 1.0) (>= ?J2 1.0) $x236627 $x302192 (<= ?M2 2.0) (>= ?M2 2.0) $x855802 $x385441)))
(let (($x896541 (and ?E2 ?I2 (<= ?J2 1.0) (>= ?J2 1.0) (<= ?K2 ?L2) (>= ?K2 ?L2) (<= ?M2 2.0) (>= ?M2 2.0) (<= ?N2 ?O2) (>= ?N2 ?O2))))
(let (($x494039 (not ?H2)))
(let (($x286666 (or $x494039 (and ?I2 (not ?P2) (not ?Q2) (not ?R2)) (and ?P2 (not ?I2) (not ?Q2) (not ?R2)) (and ?Q2 (not ?I2) (not ?P2) (not ?R2)) (and ?R2 (not ?I2) (not ?P2) (not ?Q2)))))
(let (($x61503 (not ?Y2)))
(let (($x441299 (or $x61503 ?Z2)))
(let (($x173552 (>= ?H3 ?T)))
(let (($x368647 (<= ?H3 ?T)))
(let (($x153985 (>= ?E3 ?K2)))
(let (($x289391 (<= ?E3 ?K2)))
(let (($x359643 (and ?H2 ?L3 (not ?U2) (<= ?D3 ?N) (>= ?D3 ?N) $x289391 $x153985 (<= ?G3 ?N2) (>= ?G3 ?N2) $x368647 $x173552)))
(let (($x72696 (and ?S2 ?K3 ?X2 (<= ?D3 ?N) (>= ?D3 ?N) $x289391 $x153985 (<= ?G3 ?N2) (>= ?G3 ?N2) $x368647 $x173552)))
(let (($x672108 (and ?V2 ?J3 (not ?A3) (<= ?D3 1.0) (>= ?D3 1.0) $x289391 $x153985 (<= ?G3 2.0) (>= ?G3 2.0) $x368647 $x173552)))
(let (($x257211 (and ?Y2 ?C3 (<= ?D3 1.0) (>= ?D3 1.0) (<= ?E3 ?F3) (>= ?E3 ?F3) (<= ?G3 2.0) (>= ?G3 2.0) (<= ?H3 ?I3) (>= ?H3 ?I3))))
(let (($x544985 (not ?B3)))
(let (($x364079 (or $x544985 (and ?C3 (not ?J3) (not ?K3) (not ?L3)) (and ?J3 (not ?C3) (not ?K3) (not ?L3)) (and ?K3 (not ?C3) (not ?J3) (not ?L3)) (and ?L3 (not ?C3) (not ?J3) (not ?K3)))))
(let (($x867085 (not ?S3)))
(let (($x865115 (or $x867085 ?T3)))
(let (($x859901 (and ?D1 ?W3 (<= ?A ?L) (>= ?A ?L) (<= ?B ?M) (>= ?B ?M) (<= ?C ?N) (>= ?C ?N) (<= ?D ?X3) (>= ?D ?X3) (<= ?E ?O) (>= ?E ?O) (<= ?F ?P) (>= ?F ?P) (<= ?G ?Q) (>= ?G ?Q) (<= ?H ?R) (>= ?H ?R) (<= ?I ?S) (>= ?I ?S) (<= ?J ?T) (>= ?J ?T))))
(let (($x854845 (and ?P3 (not ?K) (<= ?A ?P1) (>= ?A ?P1) (<= ?B ?J2) (>= ?B ?J2) (<= ?C ?D3) (>= ?C ?D3) (<= ?D 1.0) (>= ?D 1.0) (<= ?E ?E3) (>= ?E ?E3) (<= ?F ?S1) (>= ?F ?S1) (<= ?G ?T1) (>= ?G ?T1) (<= ?H ?M2) (>= ?H ?M2) (<= ?I ?G3) (>= ?I ?G3) (<= ?J 2.0) (>= ?J 2.0))))
(let (($x838249 (and ?S3 (<= ?A ?P1) (>= ?A ?P1) (<= ?B ?J2) (>= ?B ?J2) (<= ?C ?D3) (>= ?C ?D3) (<= ?D 1.0) (>= ?D 1.0) (<= ?E ?U3) (>= ?E ?U3) (<= ?F ?S1) (>= ?F ?S1) (<= ?G ?V3) (>= ?G ?V3) (<= ?H ?M2) (>= ?H ?M2) (<= ?I ?G3) (>= ?I ?G3) (<= ?J 2.0) (>= ?J 2.0))))
(let (($x36600 (and (|cp-rel-bb.i102.i| ?K ?L ?M ?N ?O ?P ?Q ?R ?S ?T) (= ?S4 (= ?P1 1.0)) (= ?U3 (+ 1.0 ?E3)) (= ?R3 (= ?R4 0.0)) (= ?O3 (= ?H3 0.0)) (= ?I3 (ite ?K 0.0 ?T)) (= ?F3 (+ 1.0 ?K2)) (= ?A3 (= ?N 1.0)) (= ?X2 (= ?Q4 0.0)) (= ?U2 (= ?N2 0.0)) (= ?O2 (ite ?P4 0.0 ?S)) (= ?P4 (= ?N 1.0)) (= ?L2 (+ 1.0 ?Q1)) (= ?G2 (= ?M 1.0)) (= ?D2 (= ?O4 0.0)) (= ?A2 (= ?U1 0.0)) (= ?V1 (ite ?N4 0.0 ?R)) (= ?N4 (= ?M 1.0)) (= ?L1 (or ?L4 ?K4)) (= ?L4 (= ?M4 5.0)) (= ?K4 (not (= ?J4 ?O))) (= ?J4 (+ 3.0 ?P)) (= ?W3 (or ?I4 ?G4)) (= ?I4 (or ?H4 ?F4)) (= ?H4 (or ?E4 ?D4)) (= ?G4 (= ?T 0.0)) (= ?F4 (= ?S 0.0)) (= ?E4 (= ?R 0.0)) (= ?D4 (= ?Q 0.0)) (= ?I1 (= ?L 1.0)) (= ?F1 (or ?C4 ?B4)) (= ?C4 (or ?A4 ?Z3)) (= ?B4 (= ?T 0.0)) (= ?A4 (= ?S 0.0)) (= ?Z3 (= ?R 0.0)) (= ?C1 (= ?Y3 0.0)) (= ?X (= ?Q 0.0)) (or $x838249 $x854845 $x859901) $x865115 (or $x867085 (and ?P3 ?T3 ?K)) (or (not ?P3) ?Q3) (or (not ?P3) (and ?M3 ?Q3 (not ?R3))) (or (not ?M3) ?N3) (or (not ?M3) (and ?B3 ?N3 ?O3)) $x364079 (or $x544985 $x257211 $x672108 $x72696 $x359643) $x441299 (or $x61503 (and ?V2 ?Z2 ?A3)) (or (not ?V2) ?W2) (or (not ?V2) (and ?S2 ?W2 (not ?X2))) (or (not ?S2) ?T2) (or (not ?S2) (and ?H2 ?T2 ?U2)) $x286666 (or $x494039 $x896541 $x855730 $x284785 $x353724) $x580474 (or $x646362 (and ?B2 ?F2 ?G2)) (or (not ?B2) ?C2) (or (not ?B2) (and ?Y1 ?C2 (not ?D2))) (or (not ?Y1) ?Z1) (or (not ?Y1) (and ?N1 ?Z1 ?A2)) $x850553 (or (not ?N1) $x119374 $x164718 $x119896) (or (not ?J1) (and ?K1 (not ?M1)) (and ?M1 (not ?K1))) $x349772 $x40261 (or $x295316 (and ?A1 ?H1 ?I1)) (or (not ?D1) ?E1) (or (not ?D1) (and ?Y ?E1 (not ?F1))) (or (not ?A1) ?B1) (or (not ?A1) (and ?U ?B1 (not ?C1))) (or (not ?Y) ?Z) (or (not ?Y) (and ?V ?Z (not ?X))) (or (not ?U) ?W) (or (not ?U) (and ?V ?W ?X)) (= ?V3 (ite ?S4 0.0 ?T1)))))
(=> $x36600 $x857886))))))))))))))))))))))))))))))))))))))))
)
(assert (forall ((?A Real) (?B Real) (?C Real) (?D Real) (?E Real) (?F Real) (?G Real) (?H Real) (?I Real) (?J Real) (?K Bool) (?L Real) (?M Real) (?N Real) (?O Real) (?P Real) (?Q Real) (?R Real) (?S Real) (?T Real) (?U Bool) )(let (($x250916 (= ?U true)))
(let (($x554374 (|cp-rel-bb.i102.i.outer| ?A ?B ?C ?D ?E ?F ?G ?H ?I ?J)))
(let (($x378295 (and $x554374 (>= ?T ?J) (<= ?T ?J) (>= ?S ?I) (<= ?S ?I) (>= ?R ?H) (<= ?R ?H) (>= ?Q ?G) (<= ?Q ?G) (>= ?P ?F) (<= ?P ?F) (>= ?O ?E) (<= ?O ?E) (>= ?N ?C) (<= ?N ?C) (>= ?M ?B) (<= ?M ?B) (>= ?L ?A) (<= ?L ?A) $x250916 (= ?K (= ?D 1.0)))))
(=> $x378295 (|cp-rel-bb.i102.i| ?K ?L ?M ?N ?O ?P ?Q ?R ?S ?T))))))
)
(assert (forall ((?A Bool) (?B Real) (?C Real) (?D Real) (?E Real) (?F Real) (?G Real) (?H Real) (?I Real) (?J Real) (?K Bool) (?L Bool) (?M Bool) (?N Bool) (?O Bool) (?P Bool) (?Q Bool) (?R Bool) (?S Bool) (?T Bool) (?U Bool) (?V Bool) (?W Bool) (?X Bool) (?Y Bool) (?Z Bool) (?A1 Bool) (?B1 Bool) (?C1 Bool) (?D1 Real) (?E1 Real) (?F1 Real) (?G1 Real) (?H1 Real) (?I1 Real) (?J1 Real) (?K1 Bool) (?L1 Bool) (?M1 Bool) (?N1 Bool) (?O1 Bool) (?P1 Bool) (?Q1 Bool) (?R1 Bool) (?S1 Bool) (?T1 Bool) (?U1 Bool) (?V1 Bool) (?W1 Bool) (?X1 Real) (?Y1 Real) (?Z1 Real) (?A2 Real) (?B2 Real) (?C2 Real) (?D2 Bool) (?E2 Bool) (?F2 Bool) (?G2 Bool) (?H2 Bool) (?I2 Bool) (?J2 Bool) (?K2 Bool) (?L2 Bool) (?M2 Bool) (?N2 Bool) (?O2 Bool) (?P2 Bool) (?Q2 Bool) (?R2 Real) (?S2 Real) (?T2 Real) (?U2 Real) (?V2 Real) (?W2 Real) (?X2 Bool) (?Y2 Bool) (?Z2 Bool) (?A3 Bool) (?B3 Bool) (?C3 Bool) (?D3 Bool) (?E3 Real) (?F3 Bool) (?G3 Bool) (?H3 Bool) (?I3 Bool) (?J3 Real) (?K3 Bool) (?L3 Bool) (?M3 Real) (?N3 Bool) (?O3 Real) (?P3 Bool) (?Q3 Real) (?R3 Real) (?S3 Real) (?T3 Real) (?U3 Real) (?V3 Real) (?W3 Real) (?X3 Real) (?Y3 Real) (?Z3 Real) (?A4 Real) )(let (($x295316 (not ?O)))
(let (($x40261 (or $x295316 ?P)))
(let (($x133135 (or (not ?X) (and ?U ?Y (not ?Z)) (and ?Q ?A1 (not ?W)))))
(let (($x150370 (and ?O ?L1 ?T (<= ?D1 ?B) (>= ?D1 ?B) (<= ?E1 ?E) (>= ?E1 ?E) (<= ?G1 ?F) (>= ?G1 ?F) (<= ?H1 ?G) (>= ?H1 ?G) (<= ?I1 ?H) (>= ?I1 ?H))))
(let (($x603468 (and ?K ?K1 ?S (<= ?D1 ?B) (>= ?D1 ?B) (<= ?E1 ?E) (>= ?E1 ?E) (<= ?G1 ?F) (>= ?G1 ?F) (<= ?H1 ?G) (>= ?H1 ?G) (<= ?I1 ?H) (>= ?I1 ?H))))
(let (($x244470 (and ?X ?C1 (<= ?D1 1.0) (>= ?D1 1.0) (<= ?E1 ?F1) (>= ?E1 ?F1) (<= ?G1 ?F1) (>= ?G1 ?F1) (<= ?H1 2.0) (>= ?H1 2.0) (<= ?I1 ?J1) (>= ?I1 ?J1))))
(let (($x545978 (or (not ?B1) (and ?C1 (not ?K1) (not ?L1)) (and ?K1 (not ?C1) (not ?L1)) (and ?L1 (not ?C1) (not ?K1)))))
(let (($x646362 (not ?M1)))
(let (($x580474 (or $x646362 ?N1)))
(let (($x157761 (>= ?B2 ?I)))
(let (($x178336 (<= ?B2 ?I)))
(let (($x575583 (>= ?Y1 ?E1)))
(let (($x826880 (<= ?Y1 ?E1)))
(let (($x401288 (and ?B1 ?F2 (not ?O1) (<= ?X1 ?C) (>= ?X1 ?C) $x826880 $x575583 (<= ?A2 ?I1) (>= ?A2 ?I1) $x178336 $x157761)))
(let (($x411426 (and ?M1 ?E2 ?R1 (<= ?X1 ?C) (>= ?X1 ?C) $x826880 $x575583 (<= ?A2 ?I1) (>= ?A2 ?I1) $x178336 $x157761)))
(let (($x342898 (and ?P1 ?D2 (not ?U1) (<= ?X1 1.0) (>= ?X1 1.0) $x826880 $x575583 (<= ?A2 2.0) (>= ?A2 2.0) $x178336 $x157761)))
(let (($x134185 (and ?S1 ?W1 (<= ?X1 1.0) (>= ?X1 1.0) (<= ?Y1 ?Z1) (>= ?Y1 ?Z1) (<= ?A2 2.0) (>= ?A2 2.0) (<= ?B2 ?C2) (>= ?B2 ?C2))))
(let (($x478461 (or (not ?V1) (and ?W1 (not ?D2) (not ?E2) (not ?F2)) (and ?D2 (not ?W1) (not ?E2) (not ?F2)) (and ?E2 (not ?W1) (not ?D2) (not ?F2)) (and ?F2 (not ?W1) (not ?D2) (not ?E2)))))
(let (($x61503 (not ?G2)))
(let (($x441299 (or $x61503 ?H2)))
(let (($x840749 (>= ?V2 ?J)))
(let (($x419050 (<= ?V2 ?J)))
(let (($x449805 (>= ?S2 ?Y1)))
(let (($x177355 (<= ?S2 ?Y1)))
(let (($x126883 (and ?V1 ?Z2 (not ?I2) (<= ?R2 ?D) (>= ?R2 ?D) $x177355 $x449805 (<= ?U2 ?B2) (>= ?U2 ?B2) $x419050 $x840749)))
(let (($x404930 (and ?G2 ?Y2 ?L2 (<= ?R2 ?D) (>= ?R2 ?D) $x177355 $x449805 (<= ?U2 ?B2) (>= ?U2 ?B2) $x419050 $x840749)))
(let (($x288804 (and ?J2 ?X2 (not ?O2) (<= ?R2 1.0) (>= ?R2 1.0) $x177355 $x449805 (<= ?U2 2.0) (>= ?U2 2.0) $x419050 $x840749)))
(let (($x35725 (and ?M2 ?Q2 (<= ?R2 1.0) (>= ?R2 1.0) (<= ?S2 ?T2) (>= ?S2 ?T2) (<= ?U2 2.0) (>= ?U2 2.0) (<= ?V2 ?W2) (>= ?V2 ?W2))))
(let (($x260159 (or (not ?P2) (and ?Q2 (not ?X2) (not ?Y2) (not ?Z2)) (and ?X2 (not ?Q2) (not ?Y2) (not ?Z2)) (and ?Y2 (not ?Q2) (not ?X2) (not ?Z2)) (and ?Z2 (not ?Q2) (not ?X2) (not ?Y2)))))
(let (($x867085 (not ?A3)))
(let (($x865115 (or $x867085 ?B3)))
(let (($x555675 (not ?C3)))
(let (($x869136 (and ?P2 $x555675 (<= ?S3 ?D1) (>= ?S3 ?D1) (<= ?T3 ?X1) (>= ?T3 ?X1) (<= ?U3 ?R2) (>= ?U3 ?R2) (<= ?V3 ?S2) (>= ?V3 ?S2) (<= ?W3 ?G1) (>= ?W3 ?G1) (<= ?X3 ?H1) (>= ?X3 ?H1) (<= ?Y3 ?A2) (>= ?Y3 ?A2) (<= ?Z3 ?U2) (>= ?Z3 ?U2) (<= ?A4 ?V2) (>= ?A4 ?V2))))
(let (($x624376 (and ?A3 ?D3 (<= ?S3 ?D1) (>= ?S3 ?D1) (<= ?T3 ?X1) (>= ?T3 ?X1) (<= ?U3 ?R2) (>= ?U3 ?R2) (<= ?V3 ?S2) (>= ?V3 ?S2) (<= ?W3 ?G1) (>= ?W3 ?G1) (<= ?X3 ?H1) (>= ?X3 ?H1) (<= ?Y3 ?A2) (>= ?Y3 ?A2) (<= ?Z3 ?U2) (>= ?Z3 ?U2) (<= ?A4 ?V2) (>= ?A4 ?V2))))
(let (($x103370 (and (|cp-rel-bb.i102.i| ?A ?B ?C ?D ?E ?F ?G ?H ?I ?J) (= ?C3 (= ?V2 0.0)) (= ?W2 (ite ?A 0.0 ?J)) (= ?T2 (+ 1.0 ?Y1)) (= ?O2 (= ?D 1.0)) (= ?L2 (= ?Q3 0.0)) (= ?I2 (= ?B2 0.0)) (= ?C2 (ite ?P3 0.0 ?I)) (= ?P3 (= ?D 1.0)) (= ?Z1 (+ 1.0 ?E1)) (= ?U1 (= ?C 1.0)) (= ?R1 (= ?O3 0.0)) (= ?O1 (= ?I1 0.0)) (= ?J1 (ite ?N3 0.0 ?H)) (= ?N3 (= ?C 1.0)) (= ?Z (or ?L3 ?K3)) (= ?L3 (= ?M3 5.0)) (= ?K3 (not (= ?J3 ?E))) (= ?J3 (+ 3.0 ?F)) (= ?W (= ?B 1.0)) (= ?T (or ?I3 ?H3)) (= ?I3 (or ?G3 ?F3)) (= ?H3 (= ?J 0.0)) (= ?G3 (= ?I 0.0)) (= ?F3 (= ?H 0.0)) (= ?S (= ?E3 0.0)) (= ?N (= ?G 0.0)) (or $x624376 $x869136) $x865115 (or $x867085 (and ?P2 ?B3 ?C3)) $x260159 (or (not ?P2) $x35725 $x288804 $x404930 $x126883) (or (not ?M2) ?N2) (or (not ?M2) (and ?J2 ?N2 ?O2)) (or (not ?J2) ?K2) (or (not ?J2) (and ?G2 ?K2 (not ?L2))) $x441299 (or $x61503 (and ?V1 ?H2 ?I2)) $x478461 (or (not ?V1) $x134185 $x342898 $x411426 $x401288) (or (not ?S1) ?T1) (or (not ?S1) (and ?P1 ?T1 ?U1)) (or (not ?P1) ?Q1) (or (not ?P1) (and ?M1 ?Q1 (not ?R1))) $x580474 (or $x646362 (and ?B1 ?N1 ?O1)) $x545978 (or (not ?B1) $x244470 $x603468 $x150370) (or (not ?X) (and ?Y (not ?A1)) (and ?A1 (not ?Y))) $x133135 (or (not ?U) ?V) (or (not ?U) (and ?Q ?V ?W)) (or (not ?Q) ?R) (or (not ?Q) (and ?K ?R (not ?S))) $x40261 (or $x295316 (and ?L ?P (not ?N))) (or (not ?K) ?M) (or (not ?K) (and ?L ?M ?N)) (= ?D3 (= ?R3 0.0)))))
(=> $x103370 (|cp-rel-bb.i102.i| ?A ?S3 ?T3 ?U3 ?V3 ?W3 ?X3 ?Y3 ?Z3 ?A4))))))))))))))))))))))))))))))))))))))
)
(assert (forall ((?A Bool) (?B Real) (?C Real) (?D Real) (?E Real) (?F Real) (?G Real) (?H Real) (?I Real) (?J Real) (?K Bool) (?L Bool) (?M Bool) (?N Bool) (?O Bool) (?P Bool) (?Q Bool) (?R Bool) (?S Bool) (?T Bool) (?U Bool) (?V Bool) (?W Bool) (?X Bool) (?Y Bool) (?Z Bool) (?A1 Bool) (?B1 Bool) (?C1 Real) (?D1 Real) (?E1 Real) (?F1 Real) (?G1 Real) (?H1 Real) (?I1 Real) (?J1 Real) (?K1 Real) )(let (($x809723 (|cp-rel-__UFO__0| ?C1 ?D1 ?E1 ?F1 ?G1 ?H1 ?I1 ?J1 ?K1 ?A ?B ?C ?D ?E ?F ?G ?H ?I ?J)))
(let (($x845582 (and (|cp-rel-bb.i102.i| ?A ?B ?C ?D ?E ?F ?G ?H ?I ?J) (= ?B1 (or ?A1 ?Y)) (= ?A1 (or ?X ?W)) (= ?Z (= ?J 0.0)) (= ?Y (= ?I 0.0)) (= ?X (= ?H 0.0)) (= ?W (= ?G 0.0)) (= ?Q (or ?V ?U)) (= ?V (or ?T ?S)) (= ?U (= ?J 0.0)) (= ?T (= ?I 0.0)) (= ?S (= ?H 0.0)) (= ?L (= ?G 0.0)) (not (= ?R true)) (= ?O true) (or (not ?O) ?P) (or (not ?O) (and ?M ?P (not ?Q))) (or (not ?M) ?N) (or (not ?M) (and ?K ?N (not ?L))) (= ?R (or ?B1 ?Z)))))
(=> $x845582 $x809723))))
)
(assert (forall ((?A Bool) (?B Real) (?C Real) (?D Real) (?E Real) (?F Real) (?G Real) (?H Real) (?I Real) (?J Real) (?K Real) (?L Real) (?M Real) (?N Real) (?O Real) (?P Real) (?Q Real) (?R Real) (?S Real) (?T Bool) )(let (($x215383 (|cp-rel-__UFO__0| ?B ?C ?D ?E ?F ?G ?H ?I ?J ?A ?K ?L ?M ?N ?O ?P ?Q ?R ?S)))
(=> (and $x215383 (= ?T true)) $x215383)))
)
(assert (forall ((?A Bool) (?B Real) (?C Real) (?D Real) (?E Real) (?F Real) (?G Real) (?H Real) (?I Real) (?J Real) (?K Bool) (?L Bool) (?M Bool) (?N Bool) (?O Bool) (?P Bool) (?Q Bool) (?R Bool) (?S Bool) (?T Bool) (?U Bool) (?V Real) (?W Real) (?X Bool) (?Y Bool) (?Z Real) )(let (($x851252 (and (|cp-rel-bb.i102.i| ?A ?B ?C ?D ?E ?F ?G ?H ?I ?J) (= ?Y (= ?Z 5.0)) (= ?X (not (= ?W ?E))) (= ?W (+ 3.0 ?F)) (= ?T (= ?B 1.0)) (= ?Q (= ?V 0.0)) (= ?N (= ?G 0.0)) (= ?U true) (= ?R true) (or (not ?R) ?S) (or (not ?R) (and ?O ?S ?T)) (or (not ?O) ?P) (or (not ?O) (and ?K ?P (not ?Q))) (or (not ?K) ?M) (or (not ?K) (and ?L ?M ?N)) (= ?U (or ?Y ?X)))))
(=> $x851252 |cp-rel-UnifiedReturnBlock|)))
)
(assert (not cp-rel-UnifiedReturnBlock))
(check-sat)
